ITEM = 1..30;
capacity1 = 254;
capacity2 = 254;
capacity3 = 254;
profits = [81, 53, 105, 59, 29, 26, 31, 21, 83, 23, 34, 30, 30, 35, 23, 23, 29, 30, 104, 23, 27, 28, 41, 80, 25, 35, 22, 41, 47, 57];
weights = [77, 43, 99, 52, 23, 36, 40, 60, 84, 18, 27, 35, 44, 73, 15, 63, 33, 61, 94, 15, 69, 28, 42, 84, 25, 67, 13, 67, 67, 73];
